
Gurobi 11.0.0 (win64, C++) logging started Tue Jul 29 12:18:54 2025

Set parameter TokenServer to value "141.76.38.119"
### START HEURISTIC APPROACH APPROACH ###
ProblemVariant: 1
### START PREPROCESSING ###
## Start start solution procedure ##
Start solution with 5 Vehicles and total costs 451.169 in 6.42435 s.
### END PREPROCESSING ###
Route 0 0-6-1-2-5-7-10-0 : weight util 0.950000 | volume util 0.690578 | infeasible with packing heuristic | feasible with CP model
Route 1 0-9-15-18-20-0 : weight util 0.683333 | volume util 0.539622 | infeasible with packing heuristic | feasible with CP model
Route 2 0-12-8-3-4-11-0 : weight util 0.800000 | volume util 0.702333 | infeasible with packing heuristic | feasible with CP model
Route 3 0-14-16-13-0 : weight util 0.616667 | volume util 0.457600 | infeasible with packing heuristic | feasible with CP model
Route 4 0-19-21-17-0 : weight util 0.700000 | volume util 0.544667 | infeasible with packing heuristic | feasible with CP model
